
   9    2
   3    3

   0   0   0   5 2 5 6 7 8 
   2   1   1   2 4 3 
   1   1   1   1 9
   2   2   0   1 9
   1   1   1   1 9
   1   0   2   1 9
   2   0   1   1 9
   1   2   2   1 9
   0   0   0   0 
